DIMACS_lns/graph-1000-102.col
p edge 1000 1817
e 1 310
e 1 703
e 1 760
e 1 523
e 1 899
e 1 41
e 1 330
e 2 705
e 2 900
e 2 882
e 2 823
e 4 288
e 4 510
e 4 765
e 7 220
e 7 225
e 7 428
e 7 292
e 9 226
e 9 464
e 9 119
e 9 60
e 9 42
e 9 172
e 9 763
e 9 408
e 10 80
e 10 260
e 10 872
e 10 893
e 10 985
e 10 466
e 10 891
e 10 438
e 11 157
e 11 802
e 11 164
e 11 310
e 12 749
e 12 564
e 12 349
e 13 84
e 13 132
e 13 55
e 13 385
e 15 898
e 15 1000
e 15 761
e 19 253
e 19 940
e 19 682
e 22 908
e 22 183
e 22 628
e 22 877
e 22 168
e 22 967
e 23 954
e 23 532
e 23 137
e 23 642
e 24 360
e 24 718
e 24 89
e 25 379
e 25 871
e 25 484
e 26 498
e 26 180
e 26 84
e 26 920
e 27 686
e 27 388
e 27 82
e 27 75
e 27 70
e 28 855
e 28 948
e 28 243
e 28 927
e 30 189
e 30 309
e 30 641
e 32 428
e 32 752
e 32 729
e 32 719
e 33 707
e 33 995
e 33 1000
e 33 584
e 34 600
e 34 479
e 34 589
e 34 390
e 35 606
e 35 238
e 35 477
e 35 824
e 35 264
e 37 566
e 37 805
e 37 703
e 37 523
e 38 146
e 38 799
e 38 104
e 39 891
e 39 315
e 39 557
e 39 486
e 39 191
e 39 757
e 39 229
e 40 573
e 40 584
e 40 824
e 40 869
e 41 667
e 41 745
e 41 208
e 41 768
e 41 614
e 42 163
e 42 772
e 42 102
e 43 413
e 43 178
e 43 648
e 43 244
e 43 400
e 44 573
e 44 180
e 44 893
e 44 78
e 45 868
e 45 837
e 45 566
e 46 751
e 46 171
e 46 528
e 46 478
e 47 857
e 47 60
e 47 782
e 49 490
e 49 469
e 49 653
e 49 589
e 49 387
e 50 850
e 50 774
e 50 655
e 50 439
e 51 316
e 51 431
e 51 305
e 51 518
e 52 919
e 52 458
e 52 490
e 52 967
e 52 487
e 52 847
e 52 573
e 52 297
e 53 81
e 53 777
e 53 295
e 53 149
e 53 469
e 53 955
e 54 340
e 54 324
e 54 763
e 55 986
e 55 970
e 55 85
e 56 169
e 56 902
e 56 721
e 59 419
e 59 883
e 59 443
e 59 910
e 59 281
e 60 239
e 60 765
e 61 86
e 61 235
e 61 93
e 61 927
e 61 994
e 61 687
e 61 446
e 61 240
e 62 744
e 62 358
e 62 310
e 63 929
e 63 954
e 63 264
e 63 698
e 63 758
e 63 605
e 63 478
e 63 318
e 64 593
e 64 692
e 64 234
e 65 272
e 65 323
e 65 852
e 65 80
e 65 155
e 65 960
e 67 575
e 67 226
e 67 211
e 68 83
e 68 155
e 68 785
e 68 91
e 69 772
e 69 442
e 69 75
e 69 323
e 69 594
e 69 713
e 70 373
e 70 318
e 70 931
e 70 867
e 70 404
e 70 80
e 70 659
e 71 951
e 71 866
e 71 514
e 72 863
e 72 489
e 72 216
e 73 850
e 73 867
e 73 765
e 73 631
e 74 458
e 74 595
e 74 329
e 74 876
e 74 933
e 75 614
e 75 215
e 75 151
e 76 754
e 76 172
e 76 504
e 77 508
e 77 183
e 77 172
e 78 137
e 78 160
e 78 301
e 80 444
e 80 885
e 80 111
e 80 516
e 81 682
e 81 183
e 82 934
e 82 128
e 82 525
e 82 475
e 82 961
e 83 764
e 83 340
e 83 416
e 83 211
e 84 240
e 84 205
e 84 225
e 84 865
e 84 568
e 85 159
e 85 693
e 85 394
e 85 292
e 85 434
e 85 668
e 86 875
e 86 880
e 86 748
e 86 634
e 86 145
e 86 483
e 86 247
e 86 477
e 87 810
e 87 897
e 87 191
e 87 94
e 87 747
e 89 126
e 89 275
e 89 634
e 89 794
e 90 116
e 90 822
e 90 337
e 90 971
e 90 264
e 91 757
e 91 983
e 91 327
e 91 148
e 91 416
e 92 809
e 92 266
e 92 472
e 93 535
e 93 260
e 94 764
e 94 828
e 95 679
e 95 588
e 95 317
e 95 881
e 97 212
e 97 243
e 97 387
e 97 820
e 97 337
e 97 209
e 97 603
e 98 175
e 98 308
e 98 386
e 98 375
e 98 403
e 98 934
e 99 692
e 99 897
e 99 630
e 100 740
e 100 190
e 100 572
e 102 970
e 102 801
e 102 243
e 102 329
e 103 816
e 103 746
e 103 897
e 103 304
e 104 323
e 104 424
e 104 315
e 104 191
e 104 416
e 104 893
e 104 282
e 107 804
e 107 744
e 107 645
e 107 656
e 109 348
e 109 163
e 109 305
e 109 899
e 109 938
e 109 492
e 109 434
e 111 763
e 111 782
e 115 749
e 115 904
e 115 310
e 115 548
e 115 844
e 116 707
e 116 127
e 116 800
e 118 973
e 118 983
e 118 848
e 118 631
e 119 426
e 119 464
e 119 343
e 120 479
e 120 159
e 120 590
e 123 471
e 123 932
e 123 488
e 124 282
e 124 292
e 124 898
e 124 638
e 126 465
e 126 357
e 126 385
e 127 336
e 127 681
e 128 554
e 128 353
e 128 572
e 129 565
e 129 836
e 129 256
e 130 635
e 130 141
e 130 354
e 130 492
e 131 434
e 131 577
e 131 914
e 131 840
e 132 395
e 132 243
e 132 148
e 132 675
e 133 615
e 133 766
e 133 350
e 133 310
e 134 620
e 134 360
e 134 558
e 134 588
e 134 967
e 135 917
e 135 979
e 135 866
e 136 293
e 136 238
e 136 677
e 136 613
e 136 719
e 136 797
e 136 447
e 137 881
e 137 236
e 137 290
e 137 487
e 139 815
e 139 562
e 139 645
e 139 721
e 140 565
e 140 482
e 140 313
e 140 481
e 140 785
e 141 204
e 141 234
e 141 597
e 141 986
e 142 335
e 142 203
e 142 514
e 143 551
e 143 630
e 143 613
e 143 648
e 143 173
e 143 227
e 143 276
e 143 485
e 143 704
e 145 253
e 145 445
e 145 887
e 145 178
e 146 530
e 146 608
e 146 250
e 146 810
e 147 237
e 147 255
e 147 752
e 147 755
e 148 677
e 148 446
e 148 687
e 149 680
e 149 589
e 151 753
e 151 417
e 151 272
e 151 480
e 151 267
e 151 439
e 152 212
e 152 359
e 152 595
e 152 698
e 152 970
e 155 328
e 156 526
e 156 207
e 156 939
e 156 837
e 157 786
e 157 624
e 157 840
e 157 678
e 157 263
e 158 730
e 158 323
e 158 889
e 159 718
e 160 556
e 160 820
e 160 467
e 160 816
e 160 314
e 160 274
e 161 699
e 161 262
e 161 681
e 161 770
e 161 282
e 163 679
e 163 683
e 164 447
e 164 822
e 164 417
e 164 760
e 164 461
e 164 886
e 164 171
e 168 653
e 168 951
e 169 511
e 169 504
e 169 480
e 169 604
e 169 185
e 169 726
e 169 445
e 171 805
e 171 816
e 172 403
e 172 791
e 172 774
e 172 982
e 173 683
e 173 791
e 174 305
e 174 526
e 174 270
e 174 408
e 174 462
e 175 734
e 175 409
e 175 215
e 176 281
e 176 351
e 176 396
e 176 799
e 177 913
e 177 932
e 177 431
e 177 557
e 177 469
e 177 652
e 178 729
e 178 364
e 178 609
e 178 465
e 178 763
e 179 585
e 179 571
e 179 451
e 179 232
e 179 902
e 179 928
e 179 363
e 179 512
e 180 585
e 180 359
e 182 552
e 182 708
e 182 486
e 182 271
e 182 874
e 182 675
e 182 561
e 183 810
e 183 484
e 183 327
e 184 989
e 184 700
e 184 367
e 185 675
e 185 411
e 187 346
e 187 738
e 187 583
e 188 241
e 188 901
e 188 998
e 188 272
e 188 622
e 189 995
e 189 347
e 190 690
e 190 309
e 191 220
e 191 465
e 192 619
e 192 650
e 192 708
e 192 346
e 195 733
e 195 369
e 195 589
e 195 542
e 195 495
e 196 216
e 196 908
e 196 984
e 196 757
e 196 751
e 196 347
e 196 792
e 197 985
e 197 667
e 197 630
e 197 990
e 198 465
e 198 613
e 198 534
e 198 619
e 199 694
e 199 455
e 199 986
e 199 594
e 199 384
e 200 372
e 200 803
e 200 900
e 202 668
e 202 828
e 202 961
e 203 501
e 203 596
e 203 741
e 204 594
e 204 565
e 204 572
e 205 305
e 205 433
e 205 526
e 205 316
e 205 532
e 205 384
e 205 645
e 205 348
e 207 674
e 207 923
e 207 521
e 207 904
e 208 995
e 208 276
e 209 356
e 209 704
e 209 880
e 209 364
e 211 371
e 211 352
e 211 848
e 212 301
e 212 498
e 214 677
e 214 241
e 214 950
e 214 427
e 214 937
e 215 345
e 216 481
e 216 953
e 218 402
e 218 469
e 218 859
e 218 426
e 220 898
e 220 710
e 220 537
e 220 447
e 220 606
e 220 357
e 221 329
e 221 746
e 221 893
e 222 753
e 222 836
e 222 987
e 224 498
e 224 309
e 224 718
e 224 511
e 224 954
e 225 494
e 225 710
e 226 722
e 226 664
e 226 379
e 226 301
e 227 970
e 227 250
e 227 597
e 227 948
e 227 683
e 228 927
e 228 616
e 228 922
e 228 579
e 228 954
e 229 718
e 229 856
e 229 704
e 229 354
e 231 879
e 231 323
e 231 567
e 231 498
e 231 309
e 231 876
e 232 677
e 232 650
e 232 760
e 233 343
e 233 298
e 233 859
e 233 604
e 234 605
e 235 676
e 235 687
e 235 713
e 235 680
e 236 798
e 236 997
e 237 250
e 237 866
e 238 821
e 238 810
e 238 611
e 238 372
e 239 469
e 239 575
e 239 630
e 239 957
e 240 513
e 240 556
e 240 809
e 240 462
e 240 625
e 240 932
e 240 425
e 241 724
e 241 802
e 241 738
e 243 890
e 243 322
e 243 950
e 244 789
e 244 619
e 244 995
e 247 379
e 247 867
e 247 891
e 247 424
e 250 322
e 250 466
e 251 925
e 251 791
e 251 988
e 251 315
e 251 431
e 252 984
e 252 297
e 252 394
e 253 955
e 253 643
e 253 405
e 255 479
e 255 349
e 255 716
e 256 480
e 256 388
e 256 777
e 256 969
e 257 451
e 257 494
e 257 599
e 258 566
e 258 924
e 258 733
e 258 528
e 258 982
e 258 481
e 260 542
e 260 658
e 260 873
e 262 624
e 262 656
e 262 490
e 263 754
e 263 790
e 264 530
e 264 603
e 264 989
e 265 309
e 265 792
e 265 933
e 265 812
e 266 829
e 266 887
e 266 992
e 266 708
e 266 862
e 267 291
e 267 297
e 267 503
e 267 450
e 267 551
e 268 754
e 268 883
e 268 544
e 269 643
e 269 413
e 269 428
e 269 472
e 270 484
e 270 293
e 271 687
e 271 569
e 271 653
e 271 605
e 272 954
e 272 673
e 272 609
e 272 477
e 272 333
e 273 784
e 273 501
e 273 383
e 273 935
e 273 567
e 273 967
e 274 738
e 274 368
e 274 957
e 275 443
e 275 673
e 276 648
e 276 824
e 276 413
e 276 625
e 277 523
e 277 654
e 277 823
e 278 338
e 278 992
e 278 726
e 278 867
e 278 564
e 281 432
e 281 799
e 281 913
e 281 920
e 281 833
e 281 481
e 281 614
e 281 772
e 281 912
e 281 831
e 282 394
e 282 437
e 282 609
e 282 683
e 283 421
e 283 332
e 283 752
e 283 523
e 283 846
e 283 495
e 283 574
e 286 977
e 286 815
e 286 632
e 286 904
e 287 700
e 287 654
e 287 892
e 288 495
e 288 424
e 290 459
e 290 795
e 290 738
e 291 773
e 291 572
e 292 294
e 292 620
e 292 782
e 292 472
e 292 317
e 293 295
e 293 902
e 293 944
e 294 874
e 294 784
e 294 314
e 295 855
e 295 459
e 296 451
e 296 631
e 296 510
e 296 335
e 296 508
e 296 940
e 296 673
e 297 447
e 297 432
e 297 734
e 297 738
e 298 526
e 298 351
e 298 837
e 298 856
e 298 625
e 301 404
e 301 439
e 301 943
e 304 871
e 304 765
e 304 353
e 304 941
e 305 489
e 305 340
e 306 789
e 306 464
e 306 612
e 307 762
e 307 316
e 307 667
e 308 867
e 308 764
e 308 568
e 309 767
e 309 675
e 310 615
e 310 874
e 310 432
e 312 413
e 312 875
e 312 790
e 313 740
e 313 569
e 313 804
e 313 652
e 313 812
e 313 698
e 314 394
e 314 496
e 314 761
e 314 388
e 314 641
e 314 709
e 315 636
e 316 698
e 316 534
e 316 569
e 317 700
e 317 1000
e 318 552
e 318 421
e 320 511
e 320 804
e 320 683
e 321 878
e 321 978
e 321 592
e 321 829
e 322 923
e 322 342
e 322 681
e 322 951
e 323 730
e 323 776
e 324 997
e 324 797
e 324 373
e 327 740
e 327 744
e 327 950
e 327 894
e 327 372
e 327 343
e 328 929
e 328 686
e 328 916
e 329 337
e 329 392
e 330 345
e 330 955
e 330 664
e 330 721
e 332 644
e 332 486
e 332 918
e 332 481
e 332 521
e 332 637
e 332 455
e 333 648
e 333 605
e 335 857
e 335 791
e 336 467
e 336 574
e 336 402
e 336 482
e 337 584
e 337 978
e 337 867
e 337 543
e 337 862
e 337 464
e 337 878
e 338 457
e 338 731
e 338 641
e 340 950
e 341 737
e 341 456
e 341 512
e 342 990
e 342 545
e 345 866
e 345 887
e 345 675
e 345 367
e 345 724
e 345 918
e 346 539
e 346 883
e 346 977
e 347 461
e 347 708
e 347 983
e 348 632
e 348 490
e 349 545
e 349 985
e 349 487
e 350 625
e 350 504
e 351 604
e 351 482
e 352 852
e 352 969
e 353 882
e 353 844
e 353 419
e 354 619
e 354 917
e 355 674
e 355 835
e 355 844
e 355 447
e 356 507
e 356 836
e 356 774
e 356 560
e 356 588
e 357 908
e 357 641
e 357 766
e 358 628
e 358 658
e 358 564
e 358 418
e 358 475
e 359 828
e 359 656
e 360 984
e 360 510
e 360 669
e 360 940
e 360 634
e 361 904
e 361 374
e 361 504
e 361 895
e 361 594
e 362 661
e 362 461
e 362 376
e 362 662
e 363 799
e 363 721
e 364 511
e 364 641
e 367 831
e 367 924
e 368 608
e 368 589
e 368 874
e 369 626
e 369 713
e 371 373
e 371 983
e 371 668
e 372 434
e 372 558
e 373 560
e 373 914
e 373 776
e 373 722
e 373 387
e 374 530
e 374 872
e 374 485
e 374 846
e 374 912
e 375 933
e 375 610
e 375 861
e 376 637
e 376 755
e 379 789
e 379 840
e 379 675
e 379 565
e 379 992
e 379 974
e 383 951
e 383 705
e 383 423
e 384 581
e 384 496
e 385 924
e 385 561
e 385 437
e 386 792
e 386 667
e 387 581
e 387 716
e 388 824
e 388 943
e 388 588
e 388 958
e 388 898
e 388 402
e 390 492
e 390 516
e 392 881
e 392 794
e 392 846
e 394 979
e 394 987
e 394 998
e 395 957
e 395 614
e 396 805
e 396 698
e 396 868
e 396 632
e 396 983
e 399 429
e 399 409
e 399 484
e 399 400
e 399 427
e 400 752
e 400 599
e 400 419
e 402 745
e 402 939
e 402 908
e 402 466
e 403 777
e 403 570
e 404 600
e 404 417
e 405 619
e 405 483
e 408 656
e 408 413
e 408 914
e 409 432
e 409 554
e 409 855
e 409 557
e 410 457
e 410 535
e 410 741
e 410 432
e 410 889
e 411 731
e 411 802
e 411 967
e 411 797
e 413 922
e 413 741
e 413 599
e 413 855
e 416 904
e 416 803
e 417 816
e 417 459
e 417 612
e 418 637
e 418 762
e 419 495
e 419 628
e 419 467
e 419 469
e 421 676
e 423 571
e 423 931
e 423 836
e 423 873
e 424 695
e 424 971
e 425 758
e 425 922
e 425 461
e 426 498
e 426 690
e 426 818
e 427 558
e 428 456
e 429 557
e 429 634
e 429 835
e 431 989
e 431 577
e 432 465
e 432 943
e 432 988
e 432 684
e 432 609
e 432 471
e 433 479
e 433 664
e 434 693
e 437 651
e 438 900
e 438 773
e 438 855
e 439 636
e 439 979
e 441 948
e 441 445
e 441 852
e 442 789
e 442 501
e 443 900
e 443 624
e 444 731
e 444 604
e 445 630
e 445 784
e 446 655
e 446 522
e 446 740
e 446 733
e 446 986
e 447 910
e 450 987
e 450 535
e 450 805
e 450 771
e 451 505
e 451 816
e 451 865
e 451 854
e 452 661
e 452 514
e 452 744
e 452 853
e 455 692
e 455 551
e 456 607
e 456 853
e 457 829
e 457 703
e 457 766
e 458 528
e 459 852
e 459 637
e 462 865
e 462 566
e 462 527
e 464 543
e 464 534
e 464 550
e 465 995
e 465 829
e 465 950
e 466 543
e 466 704
e 466 887
e 466 507
e 467 592
e 467 581
e 469 484
e 471 527
e 472 798
e 475 587
e 477 575
e 477 921
e 477 854
e 477 747
e 478 722
e 479 686
e 479 904
e 480 812
e 481 525
e 481 576
e 482 923
e 483 934
e 484 844
e 484 643
e 485 804
e 485 756
e 486 746
e 486 673
e 486 561
e 487 703
e 488 611
e 488 638
e 489 971
e 489 978
e 490 979
e 490 587
e 490 748
e 492 513
e 494 716
e 494 950
e 494 721
e 494 987
e 494 833
e 495 821
e 496 565
e 496 637
e 498 725
e 501 883
e 501 702
e 502 526
e 502 700
e 502 673
e 502 815
e 503 875
e 503 893
e 504 780
e 504 764
e 505 931
e 505 798
e 505 863
e 507 539
e 508 694
e 510 831
e 510 826
e 510 916
e 510 944
e 511 609
e 512 695
e 512 978
e 512 735
e 513 961
e 514 885
e 514 958
e 514 675
e 514 959
e 514 755
e 514 913
e 514 889
e 514 876
e 514 588
e 515 607
e 515 822
e 515 912
e 516 695
e 516 583
e 516 780
e 518 673
e 518 756
e 518 610
e 520 899
e 520 571
e 520 754
e 520 564
e 520 910
e 520 818
e 520 872
e 521 871
e 521 802
e 522 955
e 522 678
e 523 619
e 525 967
e 526 758
e 526 659
e 527 750
e 527 612
e 528 939
e 530 831
e 530 597
e 530 605
e 531 554
e 531 817
e 531 785
e 532 603
e 533 789
e 533 619
e 533 871
e 534 842
e 535 584
e 535 953
e 535 1000
e 536 622
e 536 924
e 536 763
e 537 698
e 537 821
e 539 944
e 539 958
e 540 607
e 540 780
e 540 612
e 540 694
e 540 661
e 542 699
e 542 631
e 542 878
e 543 777
e 544 708
e 544 600
e 544 842
e 545 755
e 548 944
e 548 585
e 548 576
e 550 937
e 550 925
e 551 894
e 551 809
e 552 782
e 554 950
e 554 927
e 556 709
e 556 734
e 557 703
e 557 768
e 558 955
e 558 675
e 560 918
e 560 561
e 560 988
e 560 718
e 561 948
e 562 564
e 562 744
e 564 581
e 564 652
e 565 622
e 565 886
e 565 969
e 567 945
e 568 765
e 568 773
e 570 921
e 570 984
e 570 894
e 571 877
e 572 762
e 573 921
e 574 800
e 574 891
e 575 763
e 576 895
e 576 876
e 577 603
e 577 638
e 579 878
e 579 786
e 579 948
e 581 702
e 581 956
e 581 941
e 583 816
e 584 655
e 584 699
e 587 664
e 587 631
e 588 866
e 588 797
e 589 604
e 590 874
e 590 880
e 590 934
e 590 600
e 592 747
e 593 979
e 593 836
e 593 654
e 594 801
e 595 664
e 595 973
e 595 649
e 596 748
e 596 771
e 599 733
e 603 746
e 603 690
e 604 626
e 605 614
e 606 658
e 606 852
e 606 687
e 606 638
e 607 973
e 607 700
e 608 918
e 608 973
e 609 773
e 609 668
e 609 840
e 609 879
e 609 771
e 609 863
e 610 656
e 611 902
e 612 765
e 612 897
e 612 857
e 613 877
e 613 960
e 614 997
e 614 700
e 614 736
e 615 752
e 616 733
e 616 634
e 619 937
e 620 889
e 622 662
e 622 673
e 622 645
e 622 784
e 624 710
e 624 973
e 624 744
e 625 901
e 626 682
e 626 797
e 626 914
e 626 931
e 630 659
e 630 661
e 631 765
e 632 737
e 633 959
e 633 969
e 633 920
e 633 690
e 634 919
e 635 661
e 635 784
e 636 642
e 636 658
e 636 749
e 637 756
e 637 880
e 638 914
e 638 867
e 641 850
e 641 747
e 642 883
e 643 756
e 643 694
e 644 801
e 644 815
e 644 955
e 644 967
e 645 651
e 645 928
e 645 654
e 645 876
e 649 875
e 649 664
e 650 817
e 650 663
e 651 726
e 654 942
e 656 777
e 659 873
e 661 924
e 661 941
e 662 943
e 662 848
e 663 956
e 663 927
e 664 763
e 664 994
e 664 744
e 664 861
e 667 773
e 669 776
e 669 810
e 673 990
e 674 678
e 674 978
e 675 800
e 676 863
e 676 918
e 677 684
e 678 859
e 678 943
e 679 934
e 679 955
e 680 724
e 680 761
e 680 750
e 682 877
e 682 801
e 682 716
e 682 726
e 682 892
e 683 756
e 684 789
e 686 865
e 687 850
e 692 758
e 692 898
e 692 879
e 692 840
e 692 731
e 693 840
e 694 745
e 694 887
e 694 735
e 694 941
e 695 877
e 695 974
e 699 717
e 700 708
e 700 717
e 702 886
e 703 794
e 704 821
e 705 818
e 705 755
e 705 880
e 705 885
e 705 765
e 707 842
e 708 842
e 709 979
e 710 716
e 716 923
e 717 760
e 717 763
e 717 789
e 718 826
e 718 916
e 718 954
e 719 801
e 719 868
e 719 854
e 721 795
e 722 857
e 722 942
e 725 774
e 725 939
e 725 752
e 729 730
e 731 818
e 733 979
e 734 785
e 734 828
e 735 737
e 736 792
e 736 847
e 738 746
e 740 761
e 740 958
e 740 955
e 740 766
e 741 770
e 744 861
e 745 821
e 745 998
e 745 958
e 747 942
e 748 797
e 748 987
e 749 767
e 750 864
e 750 958
e 750 998
e 751 922
e 752 945
e 753 800
e 754 871
e 754 829
e 756 772
e 756 826
e 757 973
e 757 987
e 758 970
e 758 913
e 758 894
e 760 984
e 760 853
e 761 930
e 761 893
e 762 821
e 762 835
e 763 861
e 765 881
e 767 768
e 768 914
e 770 921
e 770 854
e 771 935
e 773 955
e 774 847
e 784 842
e 786 925
e 786 869
e 786 892
e 790 869
e 790 868
e 791 977
e 794 828
e 794 901
e 795 904
e 798 902
e 798 956
e 800 899
e 800 940
e 800 983
e 801 951
e 802 957
e 803 898
e 803 945
e 805 847
e 810 945
e 810 974
e 815 876
e 817 818
e 820 828
e 820 940
e 822 850
e 822 917
e 822 890
e 823 960
e 823 929
e 826 867
e 826 901
e 833 885
e 833 948
e 833 995
e 837 890
e 842 997
e 844 921
e 844 847
e 846 886
e 846 898
e 853 864
e 853 871
e 856 921
e 857 953
e 857 919
e 862 969
e 864 889
e 865 897
e 867 923
e 869 918
e 873 955
e 873 984
e 879 917
e 881 995
e 881 983
e 882 932
e 889 917
e 891 933
e 891 982
e 895 919
e 895 930
e 895 931
e 898 930
e 899 994
e 899 969
e 901 988
e 904 1000
e 919 978
e 920 959
e 920 998
e 922 979
e 922 941
e 925 961
e 927 950
e 927 938
e 928 951
e 935 969
e 937 944
e 938 983
e 939 971
e 987 995
e 992 997
